% Auto-generated by scripts/generate_dzn.py
% problem_type   = polyominoes
% instance       = polyominoes_35
% source_json    = instances_json/0_low_blowup/polyominoes_35.json
% blowup         = 0.8805970149253731
% representation = NFA

mode = 1;

size = 4;
tiles = 6;
n_expressions = 6;
Q = 18;
S = 7;
q0 = [1, 1, 1, 1, 1, 1];
F = [{13}, {13}, {2}, {8}, {8}, {4}];
d_dfa = array3d(1..6, 1..18, 1..7, [
  % k = 1
    0, 0, 0, 0, 0, 0, 0,
    0, 0, 0, 0, 0, 0, 0,
    0, 0, 0, 0, 0, 0, 0,
    0, 0, 0, 0, 0, 0, 0,
    0, 0, 0, 0, 0, 0, 0,
    0, 0, 0, 0, 0, 0, 0,
    0, 0, 0, 0, 0, 0, 0,
    0, 0, 0, 0, 0, 0, 0,
    0, 0, 0, 0, 0, 0, 0,
    0, 0, 0, 0, 0, 0, 0,
    0, 0, 0, 0, 0, 0, 0,
    0, 0, 0, 0, 0, 0, 0,
    0, 0, 0, 0, 0, 0, 0,
    0, 0, 0, 0, 0, 0, 0,
    0, 0, 0, 0, 0, 0, 0,
    0, 0, 0, 0, 0, 0, 0,
    0, 0, 0, 0, 0, 0, 0,
    0, 0, 0, 0, 0, 0, 0,

  % k = 2
    0, 0, 0, 0, 0, 0, 0,
    0, 0, 0, 0, 0, 0, 0,
    0, 0, 0, 0, 0, 0, 0,
    0, 0, 0, 0, 0, 0, 0,
    0, 0, 0, 0, 0, 0, 0,
    0, 0, 0, 0, 0, 0, 0,
    0, 0, 0, 0, 0, 0, 0,
    0, 0, 0, 0, 0, 0, 0,
    0, 0, 0, 0, 0, 0, 0,
    0, 0, 0, 0, 0, 0, 0,
    0, 0, 0, 0, 0, 0, 0,
    0, 0, 0, 0, 0, 0, 0,
    0, 0, 0, 0, 0, 0, 0,
    0, 0, 0, 0, 0, 0, 0,
    0, 0, 0, 0, 0, 0, 0,
    0, 0, 0, 0, 0, 0, 0,
    0, 0, 0, 0, 0, 0, 0,
    0, 0, 0, 0, 0, 0, 0,

  % k = 3
    0, 0, 0, 0, 0, 0, 0,
    0, 0, 0, 0, 0, 0, 0,
    0, 0, 0, 0, 0, 0, 0,
    0, 0, 0, 0, 0, 0, 0,
    0, 0, 0, 0, 0, 0, 0,
    0, 0, 0, 0, 0, 0, 0,
    0, 0, 0, 0, 0, 0, 0,
    0, 0, 0, 0, 0, 0, 0,
    0, 0, 0, 0, 0, 0, 0,
    0, 0, 0, 0, 0, 0, 0,
    0, 0, 0, 0, 0, 0, 0,
    0, 0, 0, 0, 0, 0, 0,
    0, 0, 0, 0, 0, 0, 0,
    0, 0, 0, 0, 0, 0, 0,
    0, 0, 0, 0, 0, 0, 0,
    0, 0, 0, 0, 0, 0, 0,
    0, 0, 0, 0, 0, 0, 0,
    0, 0, 0, 0, 0, 0, 0,

  % k = 4
    0, 0, 0, 0, 0, 0, 0,
    0, 0, 0, 0, 0, 0, 0,
    0, 0, 0, 0, 0, 0, 0,
    0, 0, 0, 0, 0, 0, 0,
    0, 0, 0, 0, 0, 0, 0,
    0, 0, 0, 0, 0, 0, 0,
    0, 0, 0, 0, 0, 0, 0,
    0, 0, 0, 0, 0, 0, 0,
    0, 0, 0, 0, 0, 0, 0,
    0, 0, 0, 0, 0, 0, 0,
    0, 0, 0, 0, 0, 0, 0,
    0, 0, 0, 0, 0, 0, 0,
    0, 0, 0, 0, 0, 0, 0,
    0, 0, 0, 0, 0, 0, 0,
    0, 0, 0, 0, 0, 0, 0,
    0, 0, 0, 0, 0, 0, 0,
    0, 0, 0, 0, 0, 0, 0,
    0, 0, 0, 0, 0, 0, 0,

  % k = 5
    0, 0, 0, 0, 0, 0, 0,
    0, 0, 0, 0, 0, 0, 0,
    0, 0, 0, 0, 0, 0, 0,
    0, 0, 0, 0, 0, 0, 0,
    0, 0, 0, 0, 0, 0, 0,
    0, 0, 0, 0, 0, 0, 0,
    0, 0, 0, 0, 0, 0, 0,
    0, 0, 0, 0, 0, 0, 0,
    0, 0, 0, 0, 0, 0, 0,
    0, 0, 0, 0, 0, 0, 0,
    0, 0, 0, 0, 0, 0, 0,
    0, 0, 0, 0, 0, 0, 0,
    0, 0, 0, 0, 0, 0, 0,
    0, 0, 0, 0, 0, 0, 0,
    0, 0, 0, 0, 0, 0, 0,
    0, 0, 0, 0, 0, 0, 0,
    0, 0, 0, 0, 0, 0, 0,
    0, 0, 0, 0, 0, 0, 0,

  % k = 6
    0, 0, 0, 0, 0, 0, 0,
    0, 0, 0, 0, 0, 0, 0,
    0, 0, 0, 0, 0, 0, 0,
    0, 0, 0, 0, 0, 0, 0,
    0, 0, 0, 0, 0, 0, 0,
    0, 0, 0, 0, 0, 0, 0,
    0, 0, 0, 0, 0, 0, 0,
    0, 0, 0, 0, 0, 0, 0,
    0, 0, 0, 0, 0, 0, 0,
    0, 0, 0, 0, 0, 0, 0,
    0, 0, 0, 0, 0, 0, 0,
    0, 0, 0, 0, 0, 0, 0,
    0, 0, 0, 0, 0, 0, 0,
    0, 0, 0, 0, 0, 0, 0,
    0, 0, 0, 0, 0, 0, 0,
    0, 0, 0, 0, 0, 0, 0,
    0, 0, 0, 0, 0, 0, 0,
    0, 0, 0, 0, 0, 0, 0
]);
d_nfa = array3d(1..6, 1..18, 1..7, [
  % k = 1
    {3, 15}, {2, 14}, {2, 14}, {2, 14}, {2, 14}, {2, 14}, {2, 14},
    {3}, {2}, {2}, {2}, {2}, {2}, {2},
    {}, {4}, {4}, {4}, {4}, {4}, {4},
    {}, {5}, {5}, {5}, {5}, {5}, {5},
    {}, {6}, {6}, {6}, {6}, {6}, {6},
    {}, {7}, {7}, {7}, {7}, {7}, {7},
    {8}, {}, {}, {}, {}, {}, {},
    {}, {9}, {9}, {9}, {9}, {9}, {9},
    {}, {10}, {10}, {10}, {10}, {10}, {10},
    {}, {11}, {11}, {11}, {11}, {11}, {11},
    {}, {12}, {12}, {12}, {12}, {12}, {12},
    {13}, {}, {}, {}, {}, {}, {},
    {}, {13}, {13}, {13}, {13}, {13}, {13},
    {15}, {14}, {14}, {14}, {14}, {14}, {14},
    {12}, {}, {}, {}, {}, {}, {},
    {}, {}, {}, {}, {}, {}, {},
    {}, {}, {}, {}, {}, {}, {},
    {}, {}, {}, {}, {}, {}, {},

  % k = 2
    {2, 14}, {3, 15}, {2, 14}, {2, 14}, {2, 14}, {2, 14}, {2, 14},
    {2}, {3}, {2}, {2}, {2}, {2}, {2},
    {4}, {}, {4}, {4}, {4}, {4}, {4},
    {5}, {}, {5}, {5}, {5}, {5}, {5},
    {6}, {}, {6}, {6}, {6}, {6}, {6},
    {7}, {}, {7}, {7}, {7}, {7}, {7},
    {}, {8}, {}, {}, {}, {}, {},
    {9}, {}, {9}, {9}, {9}, {9}, {9},
    {10}, {}, {10}, {10}, {10}, {10}, {10},
    {11}, {}, {11}, {11}, {11}, {11}, {11},
    {12}, {}, {12}, {12}, {12}, {12}, {12},
    {}, {13}, {}, {}, {}, {}, {},
    {13}, {}, {13}, {13}, {13}, {13}, {13},
    {14}, {15}, {14}, {14}, {14}, {14}, {14},
    {}, {12}, {}, {}, {}, {}, {},
    {}, {}, {}, {}, {}, {}, {},
    {}, {}, {}, {}, {}, {}, {},
    {}, {}, {}, {}, {}, {}, {},

  % k = 3
    {1}, {1}, {2}, {1}, {1}, {1}, {1},
    {2}, {2}, {}, {2}, {2}, {2}, {2},
    {}, {}, {}, {}, {}, {}, {},
    {}, {}, {}, {}, {}, {}, {},
    {}, {}, {}, {}, {}, {}, {},
    {}, {}, {}, {}, {}, {}, {},
    {}, {}, {}, {}, {}, {}, {},
    {}, {}, {}, {}, {}, {}, {},
    {}, {}, {}, {}, {}, {}, {},
    {}, {}, {}, {}, {}, {}, {},
    {}, {}, {}, {}, {}, {}, {},
    {}, {}, {}, {}, {}, {}, {},
    {}, {}, {}, {}, {}, {}, {},
    {}, {}, {}, {}, {}, {}, {},
    {}, {}, {}, {}, {}, {}, {},
    {}, {}, {}, {}, {}, {}, {},
    {}, {}, {}, {}, {}, {}, {},
    {}, {}, {}, {}, {}, {}, {},

  % k = 4
    {1}, {1}, {1}, {2}, {1}, {1}, {1},
    {}, {}, {}, {3}, {}, {}, {},
    {4}, {4}, {4}, {}, {4}, {4}, {4},
    {5}, {5}, {5}, {}, {5}, {5}, {5},
    {6}, {6}, {6}, {}, {6}, {6}, {6},
    {}, {}, {}, {7}, {}, {}, {},
    {}, {}, {}, {8}, {}, {}, {},
    {8}, {8}, {8}, {}, {8}, {8}, {8},
    {}, {}, {}, {}, {}, {}, {},
    {}, {}, {}, {}, {}, {}, {},
    {}, {}, {}, {}, {}, {}, {},
    {}, {}, {}, {}, {}, {}, {},
    {}, {}, {}, {}, {}, {}, {},
    {}, {}, {}, {}, {}, {}, {},
    {}, {}, {}, {}, {}, {}, {},
    {}, {}, {}, {}, {}, {}, {},
    {}, {}, {}, {}, {}, {}, {},
    {}, {}, {}, {}, {}, {}, {},

  % k = 5
    {2, 9, 11, 16}, {2, 9, 11, 16}, {2, 9, 11, 16}, {2, 9, 11, 16}, {3, 10, 12, 17}, {2, 9, 11, 16}, {2, 9, 11, 16},
    {2}, {2}, {2}, {2}, {3}, {2}, {2},
    {4}, {4}, {4}, {4}, {}, {4}, {4},
    {5}, {5}, {5}, {5}, {}, {5}, {5},
    {6}, {6}, {6}, {6}, {}, {6}, {6},
    {}, {}, {}, {}, {7}, {}, {},
    {}, {}, {}, {}, {8}, {}, {},
    {8}, {8}, {8}, {8}, {}, {8}, {8},
    {9}, {9}, {9}, {9}, {10}, {9}, {9},
    {3}, {3}, {3}, {3}, {}, {3}, {3},
    {11}, {11}, {11}, {11}, {12}, {11}, {11},
    {}, {}, {}, {}, {13}, {}, {},
    {14}, {14}, {14}, {14}, {}, {14}, {14},
    {15}, {15}, {15}, {15}, {}, {15}, {15},
    {7}, {7}, {7}, {7}, {}, {7}, {7},
    {16}, {16}, {16}, {16}, {17}, {16}, {16},
    {}, {}, {}, {}, {18}, {}, {},
    {13}, {13}, {13}, {13}, {}, {13}, {13},

  % k = 6
    {2, 5}, {2, 5}, {2, 5}, {2, 5}, {2, 5}, {3, 6}, {2, 5},
    {2}, {2}, {2}, {2}, {2}, {3}, {2},
    {}, {}, {}, {}, {}, {4}, {},
    {4}, {4}, {4}, {4}, {4}, {}, {4},
    {5}, {5}, {5}, {5}, {5}, {6}, {5},
    {7}, {7}, {7}, {7}, {7}, {}, {7},
    {8}, {8}, {8}, {8}, {8}, {}, {8},
    {9}, {9}, {9}, {9}, {9}, {}, {9},
    {3}, {3}, {3}, {3}, {3}, {}, {3},
    {}, {}, {}, {}, {}, {}, {},
    {}, {}, {}, {}, {}, {}, {},
    {}, {}, {}, {}, {}, {}, {},
    {}, {}, {}, {}, {}, {}, {},
    {}, {}, {}, {}, {}, {}, {},
    {}, {}, {}, {}, {}, {}, {},
    {}, {}, {}, {}, {}, {}, {},
    {}, {}, {}, {}, {}, {}, {},
    {}, {}, {}, {}, {}, {}, {}
]);
